Route #1: 14 49 6 37 87
Route #2: 40 88 67 44
Route #3: 75 93
Route #4: 30 85 11 79
Route #5: 20 41 22 15
Route #6: 54 70 1
Route #7: 58 12 5
Route #8: 25 65 78 42 28
Route #9: 68 90 84 66
Route #10: 86 9 92
Route #11: 76 55 16 69
Route #12: 52 91 50
Route #13: 71 62 99 98 89
Route #14: 32 33 53 73 95 24
Route #15: 34 64 96 48 26 47 38
Route #16: 39 10 18
Route #17: 4 13 74
Route #18: 83 51 81
Route #19: 8 17
Route #20: 63 77 3
Route #21: 80 94 56 21
Route #22: 19 97 27
Route #23: 100 61 23
Route #24: 82 60 59
Route #25: 35 46 31
Route #26: 7 2 45 43 29 36 72 57
Cost 27591.0000
Time 16.0002